11 11
7
3 3 5 8
3 4 5 4
3 5 8 6
3 6 8 0
5 3 0 8
5 4 0 4
8 4 0 0
% time elapsed: 0.09 s
% time elapsed: 0.09 s
%%%mzn-stat: initTime=0.000245
%%%mzn-stat: solveTime=0.000578
%%%mzn-stat: solutions=14
%%%mzn-stat: variables=15
%%%mzn-stat: propagators=12
%%%mzn-stat: propagations=1368
%%%mzn-stat: nodes=220
%%%mzn-stat: failures=11
%%%mzn-stat: restarts=15
%%%mzn-stat: peakDepth=15
%%%mzn-stat-end
